100
32
26
19
26
26
15
9
10
9
17
8
11
17
6
6
1
20
17
3
4
1
1
4
2
1
2
6
17
1
2
1
2
2
5
18
4
3
2
1
1
1
17
1
2
2
3
3
1
2
4
18
1
1
1
4
7
17
19
1
1
1
2
1
1
1
18
17
1
2
2
1
9
1
2
1
2
2
2
4
1
2
1
2
1
4
4
1
2
1
2
1
2
1
2
2
2
2
2
1
1
1